     Program PWSCF v.6.1 starts on  7May2021 at 13:23:41

     Current dimensions of program PWSCF are:
     Max number of different atomic species (ntypx) = 10
     Max number of k-points (npk) =  40000
     Max angular momentum in pseudopotentials (lmaxx) =  3
               file Sn.pbe-dn-rrkjus_psl.1.0.0.UPF: wavefunction(s)  5S 4D renormalized

     Subspace diagonalization in iterative solution of the eigenvalue problem:
     a serial algorithm will be used

     Found symmetry operation: I + ( -0.0000  0.5000  0.0000)
     This is a supercell, fractional translations are disabled

     Title:
     WSe2_SnSe2_non-pol_2x2x1_7Mei(SCF)

     bravais-lattice index     =            4
     lattice parameter (alat)  =      12.0649  a.u.
     unit-cell volume          =    3186.9792 (a.u.)^3
     number of atoms/cell      =           24
     number of atomic types    =            3
     number of electrons       =       208.00
     number of Kohn-Sham states=          125
     kinetic-energy cutoff     =      47.0743  Ry
     charge density cutoff     =     423.6680  Ry
     convergence threshold     =      1.0E-06
     mixing beta               =       0.4000
     number of iterations used =            8  plain     mixing
     Exchange-correlation      =  SLA  PW   PBE  PBE ( 1  4  3  4 0 0)

     celldm(1)=  12.064919  celldm(2)=   0.000000  celldm(3)=   2.095441
     celldm(4)=   0.000000  celldm(5)=   0.000000  celldm(6)=   0.000000

     crystal axes: (cart. coord. in units of alat)
               a(1) = (   1.000000   0.000000   0.000000 )
               a(2) = (  -0.500000   0.866025   0.000000 )
               a(3) = (   0.000000   0.000000   2.095441 )

     reciprocal axes: (cart. coord. in units 2 pi/alat)
               b(1) = (  1.000000  0.577350 -0.000000 )
               b(2) = (  0.000000  1.154701  0.000000 )
               b(3) = (  0.000000 -0.000000  0.477227 )

     PseudoPot. # 1 for Sn read from file:
     C:\Users\ROG\.burai\.pseudopot/Sn.pbe-dn-rrkjus_psl.1.0.0.UPF
     MD5 check sum: 9f7ad82915168e737b3f6a04b7e1f5ac
     Pseudo is Ultrasoft + core correction, Zval = 14.0
     Generated using "atomic" code by A. Dal Corso  v.5.1.2
     Using radial grid of 1243 points,  6 beta functions with:
                l(1) =   0
                l(2) =   0
                l(3) =   1
                l(4) =   1
                l(5) =   2
                l(6) =   2
     Q(r) pseudized with 0 coefficients

     PseudoPot. # 2 for Se read from file:
     C:\Users\ROG\.burai\.pseudopot/Se.pbe-n-rrkjus_psl.1.0.0.UPF
     MD5 check sum: 5f5e5c15c95449acb3b45b44a6529d2d
     Pseudo is Ultrasoft + core correction, Zval =  6.0
     Generated using "atomic" code by A. Dal Corso  v.5.1.2
     Using radial grid of 1211 points,  4 beta functions with:
                l(1) =   0
                l(2) =   0
                l(3) =   1
                l(4) =   1
     Q(r) pseudized with 0 coefficients

     PseudoPot. # 3 for W  read from file:
     C:\Users\ROG\.burai\.pseudopot/W.pbe-nsp-van.UPF
     MD5 check sum: bb4869ded537247882558ca8e5af5f09
     Pseudo is Ultrasoft + core correction, Zval = 14.0
     Generated by new atomic code, or converted to UPF format
     Using radial grid of  923 points,  6 beta functions with:
                l(1) =   0
                l(2) =   0
                l(3) =   1
                l(4) =   1
                l(5) =   2
                l(6) =   2
     Q(r) pseudized with  6 coefficients,  rinner =    1.000   1.000   1.000
                                                       1.000   1.000

     atomic species   valence    mass     pseudopotential
        Sn            14.00   118.71000     Sn( 1.00)
        Se             6.00    78.96000     Se( 1.00)
        W             14.00   183.84000     W ( 1.00)

      6 Sym. Ops. (no inversion) found

   Cartesian axes

     site n.     atom                  positions (alat units)
         1           Sn  tau(   1) = (  -0.0000005   0.2886747   1.5715800  )
         2           Sn  tau(   2) = (  -0.2500003   0.7216871   1.5715800  )
         3           Sn  tau(   3) = (   0.4999992   0.2886747   1.5715800  )
         4           Sn  tau(   4) = (   0.2499994   0.7216871   1.5715800  )
         5           Se  tau(   5) = (   0.2499998   0.1443369   1.3265853  )
         6           Se  tau(   6) = (   0.0000000   0.5773493   1.3265853  )
         7           Se  tau(   7) = (   0.7499995   0.1443369   1.3265853  )
         8           Se  tau(   8) = (   0.4999997   0.5773493   1.3265853  )
         9           Se  tau(   9) = (  -0.0000005   0.2886747   0.7688546  )
        10           Se  tau(  10) = (  -0.2500003   0.7216871   0.7688546  )
        11           Se  tau(  11) = (   0.4999992   0.2886747   0.7688546  )
        12           Se  tau(  12) = (   0.2499994   0.7216871   0.7688546  )
        13           Se  tau(  13) = (   0.2499998   0.1443369   1.8165746  )
        14           Se  tau(  14) = (   0.0000000   0.5773493   1.8165746  )
        15           Se  tau(  15) = (   0.7499995   0.1443369   1.8165746  )
        16           Se  tau(  16) = (   0.4999997   0.5773493   1.8165746  )
        17           Se  tau(  17) = (  -0.0000005   0.2886747   0.2788653  )
        18           Se  tau(  18) = (  -0.2500003   0.7216871   0.2788653  )
        19           Se  tau(  19) = (   0.4999992   0.2886747   0.2788653  )
        20           Se  tau(  20) = (   0.2499994   0.7216871   0.2788653  )
        21           W   tau(  21) = (   0.2499998   0.1443369   0.5238600  )
        22           W   tau(  22) = (   0.0000000   0.5773493   0.5238600  )
        23           W   tau(  23) = (   0.7499995   0.1443369   0.5238600  )
        24           W   tau(  24) = (   0.4999997   0.5773493   0.5238600  )

     number of k points=     2  gaussian smearing, width (Ry)=  0.0100
                       cart. coord. in units 2pi/alat
        k(    1) = (   0.0000000   0.0000000   0.0000000), wk =   0.5000000
        k(    2) = (   0.0000000  -0.5773503   0.0000000), wk =   1.5000000

     Initial potential from superposition of free atoms

     starting charge  207.99129, renormalised to  208.00000
     Starting wfc are  152 randomized atomic wfcs

     Self-consistent Calculation

     iteration #  1     ecut=    47.07 Ry     beta=0.40
     Davidson diagonalization with overlap
     ethr =  1.00E-02,  avg # of iterations =  3.0

     Threshold (ethr) on eigenvalues was too large:
     Diagonalizing with lowered threshold

     Davidson diagonalization with overlap
     ethr =  3.67E-04,  avg # of iterations =  1.5

     total energy              =   -1621.10070562 Ry
     Harris-Foulkes estimate   =   -1621.43930068 Ry
     estimated scf accuracy    <       0.76951815 Ry

[...]

     total energy              =   -1621.21645801 Ry
     Harris-Foulkes estimate   =   -1621.21645806 Ry
     estimated scf accuracy    <       0.00000217 Ry

     iteration # 11     ecut=    47.07 Ry     beta=0.40
     Davidson diagonalization with overlap
     ethr =  1.05E-09,  avg # of iterations =  3.0

     End of self-consistent calculation

          k = 0.0000 0.0000 0.0000 ( 17401 PWs)   bands (ev):

   -62.5962 -62.5790 -62.5790 -62.5789 -27.1627 -27.1626 -27.1626 -27.0004
   -26.9267 -26.9267 -26.9266 -26.8922 -26.8922 -26.8922 -26.8105 -26.8104
   -11.4925 -11.4925 -11.4925 -11.4554 -11.4554 -11.4554 -11.3282 -11.3282
   -11.2471 -11.1922 -11.1922 -11.1922 -11.1374 -11.1374 -11.0499 -11.0498
   -11.0498 -11.0405 -11.0405 -11.0404  -6.5441  -4.5178  -4.0730  -3.3074
    -3.3074  -3.3073  -2.7067  -2.0994  -2.0991  -2.0991  -1.8143  -1.8141
    -1.8141  -1.2775  -1.2775  -1.2774   1.1158   1.1159   1.1159   3.0636
     4.0686   4.0686   4.0688   4.3627   4.3628   4.3628   4.3729   5.5209
     5.5210   5.5211   5.7561   5.7562   5.7562   6.4522   6.4523   6.4523
     7.2855   7.6123   7.6124   7.6124   8.0254   8.0254   8.0254   8.1907
     8.1907   8.9863   8.9865   8.9865   9.4468   9.6167   9.6168   9.9767
     9.9768   9.9768  10.1240  10.1240  10.1241  10.1593  10.1593  10.1593
    10.5601  10.5601  10.5601  10.8581  10.9616  10.9617  11.2648  11.2649
    11.2649  12.0115  12.0115  13.3530  13.3530  13.3531  13.8627  13.8627
    13.8627  13.8942  14.3335  14.3335  14.3335  14.5106  14.5107  14.9643
    14.9643  15.3597  15.3598  15.3598  15.3968

          k = 0.0000-0.5774 0.0000 ( 17400 PWs)   bands (ev):

   -62.5876 -62.5876 -62.5790 -62.5789 -27.0987 -27.0987 -26.9895 -26.9895
   -26.9637 -26.9636 -26.9587 -26.9586 -26.9267 -26.9267 -26.8515 -26.8515
   -11.4091 -11.4091 -11.4091 -11.4090 -11.3761 -11.3761 -11.3059 -11.3058
   -11.2402 -11.2401 -11.1867 -11.1867 -11.1687 -11.1686 -11.1649 -11.1648
   -11.1465 -11.1465 -11.0470 -11.0469  -5.4035  -5.4034  -3.4873  -3.4871
    -3.4794  -3.4794  -2.9660  -2.9659  -2.3049  -2.3047  -2.1413  -2.1411
    -1.7907  -1.7905  -1.3677  -1.3677   2.3809   2.3809   3.6529   3.6529
     4.9272   4.9273   5.0680   5.0680   5.2097   5.2098   5.4213   5.4213
     5.4763   5.4764   6.0201   6.0201   6.0334   6.0334   6.4130   6.4131
     6.7912   6.7914   6.9343   6.9344   7.3328   7.3329   7.5396   7.5396
     7.5959   7.5959   8.1238   8.1238   8.4208   8.4210   8.6503   8.6503
     9.1510   9.1512   9.1980   9.1980   9.2710   9.2711   9.8947   9.8948
    10.1079  10.1079  10.1663  10.1663  10.4582  10.4583  11.1889  11.1889
    12.5493  12.5493  13.3207  13.3207  13.5699  13.5699  13.9790  13.9790
    13.9946  13.9946  14.2362  14.2362  14.3168  14.3168  14.5083  14.5083
    14.5119  14.5120  14.7713  14.7713  15.8323

     the Fermi energy is    11.3401 ev

!    total energy              =   -1621.21645824 Ry
     Harris-Foulkes estimate   =   -1621.21645839 Ry
     estimated scf accuracy    <       0.00000031 Ry

     The total energy is the sum of the following terms:

     one-electron contribution =    -867.43047847 Ry
     hartree contribution      =     548.74814987 Ry
     xc contribution           =    -466.37293000 Ry
     ewald contribution        =    -836.15561854 Ry
     smearing contrib. (-TS)   =      -0.00558109 Ry

     convergence has been achieved in  11 iterations

     Writing output data file espresso.save

     General routines

     Parallel routines

   This run was terminated on:  13:26: 4   7May2021

   JOB DONE.